
Welcome to IBM(R) ILOG(R) CPLEX(R) Interactive Optimizer 22.1.1.0
  with Simplex, Mixed Integer & Barrier Optimizers
5725-A06 5725-A29 5724-Y48 5724-Y49 5724-Y54 5724-Y55 5655-Y21
Copyright IBM Corp. 1988, 2022.  All Rights Reserved.

Type 'help' for a list of available commands.
Type 'help' followed by a command name for more
information on commands.

CPLEX> Selected objective sense:  MINIMIZE
Selected objective  name:  00000000
Selected RHS        name:  RHS1
Selected bound      name:  BOUND
Problem 'ee.mps' read.
Read time = 0.03 sec. (3.14 ticks)
CPLEX> New value for time limit in seconds: 7200
CPLEX> New value for parallel optimization mode: -1
CPLEX> New value for default parallel thread count: 40
CPLEX> New value for mixed integer optimality gap tolerance: 1e-13
CPLEX> Version identifier: 22.1.1.0 | 2022-11-28 | 9160aff4d
CPXPARAM_Threads                                 40
CPXPARAM_Parallel                                -1
CPXPARAM_TimeLimit                               7200
CPXPARAM_MIP_Tolerances_MIPGap                   1e-13
Found incumbent of value 0.000000 after 0.00 sec. (0.31 ticks)
Tried aggregator 3 times.
MIP Presolve eliminated 756 rows and 3849 columns.
MIP Presolve modified 5559 coefficients.
Aggregator did 629 substitutions.
Reduced MIP has 3133 rows, 6748 columns, and 24525 nonzeros.
Reduced MIP has 6748 binaries, 0 generals, 0 SOSs, and 0 indicators.
Presolve time = 0.07 sec. (74.66 ticks)
Probing fixed 52 vars, tightened 0 bounds.
Probing time = 0.05 sec. (24.27 ticks)
Tried aggregator 2 times.
Detecting symmetries...
MIP Presolve eliminated 11 rows and 62 columns.
Aggregator did 10 substitutions.
Reduced MIP has 3112 rows, 6673 columns, and 24244 nonzeros.
Reduced MIP has 6673 binaries, 0 generals, 0 SOSs, and 0 indicators.
Presolve time = 0.04 sec. (42.99 ticks)
Probing time = 0.03 sec. (8.30 ticks)
Clique table members: 15943.
MIP emphasis: balance optimality and feasibility.
MIP search method: dynamic search.
Parallel mode: opportunistic, using up to 40 threads.
Root relaxation solution time = 0.05 sec. (43.90 ticks)

        Nodes                                         Cuts/
   Node  Left     Objective  IInf  Best Integer    Best Bound    ItCnt     Gap

*     0+    0                            0.0000  -1.31000e+13              --- 
*     0+    0                      -6.49000e+12  -1.31000e+13           101.85%
      0     0  -1.30900e+13    80  -6.49000e+12  -1.30900e+13     1446  101.69%
*     0+    0                      -9.79000e+12  -1.30900e+13            33.71%
*     0+    0                      -1.30900e+13  -1.30900e+13             0.00%
      0     0  -1.30900e+13   152  -1.30900e+13      Cuts: 81     1874    0.00%
*     0+    0                      -1.30900e+13  -1.30900e+13             0.00%
      0     0  -1.30900e+13   180  -1.30900e+13      Cuts: 78     2021    0.00%
*     0+    0                      -1.30900e+13  -1.30900e+13             0.00%
*     0+    0                      -1.30900e+13  -1.30900e+13             0.00%
      0     2  -1.30900e+13   143  -1.30900e+13  -1.30900e+13     2021    0.00%
Elapsed time = 1.76 sec. (984.89 ticks, tree = 0.02 MB, solutions = 10)
    208    30        cutoff        -1.30900e+13  -1.30900e+13    24911    0.00%
    617    56  -1.30900e+13   109  -1.30900e+13  -1.30900e+13    58352    0.00%
*   759   129      integral     0  -1.30900e+13  -1.30900e+13    94309    0.00%
   1307   188        cutoff        -1.30900e+13  -1.30900e+13   111955    0.00%
   2123   125  -1.30900e+13    78  -1.30900e+13  -1.30900e+13    90797    0.00%
   2926   244        cutoff        -1.30900e+13  -1.30900e+13   155841    0.00%
   3429   626  -1.30900e+13    60  -1.30900e+13  -1.30900e+13   309433    0.00%
   3994   737        cutoff        -1.30900e+13  -1.30900e+13   338475    0.00%
   4712   973        cutoff        -1.30900e+13  -1.30900e+13   434623    0.00%
   5410  1378        cutoff        -1.30900e+13  -1.30900e+13   587024    0.00%
   8029  1471  -1.30900e+13   144  -1.30900e+13  -1.30900e+13   626043    0.00%
Elapsed time = 8.36 sec. (4088.15 ticks, tree = 3.53 MB, solutions = 24)
  10038  2357  -1.30900e+13   173  -1.30900e+13  -1.30900e+13   942602    0.00%
  11298  3378        cutoff        -1.30900e+13  -1.30900e+13  1381815    0.00%
  12708  3432  -1.30900e+13    97  -1.30900e+13  -1.30900e+13  1401011    0.00%

Performing restart 1

Repeating presolve.
Tried aggregator 3 times.
MIP Presolve eliminated 419 rows and 1574 columns.
MIP Presolve added 2 rows and 0 columns.
MIP Presolve modified 1209 coefficients.
Aggregator did 233 substitutions.
Reduced MIP has 2458 rows, 4842 columns, and 17521 nonzeros.
Reduced MIP has 4842 binaries, 0 generals, 0 SOSs, and 0 indicators.
Presolve time = 0.07 sec. (66.10 ticks)
Tried aggregator 2 times.
MIP Presolve eliminated 38 rows and 84 columns.
Aggregator did 22 substitutions.
Reduced MIP has 2398 rows, 4730 columns, and 17102 nonzeros.
Reduced MIP has 4730 binaries, 0 generals, 0 SOSs, and 0 indicators.
Presolve time = 0.03 sec. (29.19 ticks)
Tried aggregator 1 time.
MIP Presolve eliminated 1 rows and 1 columns.
Reduced MIP has 2397 rows, 4729 columns, and 17097 nonzeros.
Reduced MIP has 4729 binaries, 0 generals, 0 SOSs, and 0 indicators.
Presolve time = 0.02 sec. (21.88 ticks)
Represolve time = 0.29 sec. (185.40 ticks)
  13304     0  -1.30900e+13   231  -1.30900e+13      Cuts: 33  1859947    0.00%
  13304     0  -1.30900e+13   278  -1.30900e+13      Cuts: 40  1860092    0.00%
  13304     0  -1.30900e+13   271  -1.30900e+13      Cuts: 57  1860291    0.00%
  13304     0  -1.30900e+13   300  -1.30900e+13      Cuts: 34  1860469    0.00%
  13304     0  -1.30900e+13   327  -1.30900e+13      Cuts: 35  1860630    0.00%
  13304     0  -1.30900e+13   351  -1.30900e+13      Cuts: 35  1860837    0.00%
  13304     0  -1.30900e+13   332  -1.30900e+13      Cuts: 30  1861056    0.00%
  13304     0  -1.30900e+13   338  -1.30900e+13      Cuts: 40  1861241    0.00%
  13304     0  -1.30900e+13   387  -1.30900e+13      Cuts: 37  1861484    0.00%
  13304     0  -1.30900e+13   308  -1.30900e+13      Cuts: 51  1861717    0.00%
  13304     0  -1.30900e+13   327  -1.30900e+13      Cuts: 38  1861822    0.00%
  13304     0  -1.30900e+13   367  -1.30900e+13      Cuts: 33  1861969    0.00%

Repeating presolve.
Tried aggregator 2 times.
MIP Presolve eliminated 1789 rows and 3670 columns.
MIP Presolve modified 105 coefficients.
Aggregator did 278 substitutions.
Reduced MIP has 330 rows, 744 columns, and 2484 nonzeros.
Reduced MIP has 744 binaries, 0 generals, 0 SOSs, and 0 indicators.
Presolve time = 0.01 sec. (10.37 ticks)
Tried aggregator 1 time.
Reduced MIP has 330 rows, 744 columns, and 2484 nonzeros.
Reduced MIP has 744 binaries, 0 generals, 0 SOSs, and 0 indicators.
Presolve time = 0.00 sec. (1.72 ticks)
Represolve time = 0.05 sec. (52.76 ticks)
  13304     0  -1.30900e+13   292  -1.30900e+13      Cuts: 56  1863010    0.00%
  13304     0  -1.30900e+13   186  -1.30900e+13      Cuts: 65  1863111    0.00%
  13304     0  -1.30900e+13   156  -1.30900e+13      Cuts: 31  1863192    0.00%
  13304     0  -1.30900e+13   250  -1.30900e+13      Cuts: 23  1863240    0.00%
  13304     0  -1.30900e+13   226  -1.30900e+13      Cuts: 41  1863361    0.00%
  13304     0  -1.30900e+13   235  -1.30900e+13      Cuts: 15  1863395    0.00%

Repeating presolve.
Tried aggregator 2 times.
MIP Presolve eliminated 66 rows and 260 columns.
MIP Presolve modified 75 coefficients.
Aggregator did 24 substitutions.
Reduced MIP has 240 rows, 458 columns, and 1518 nonzeros.
Reduced MIP has 458 binaries, 0 generals, 0 SOSs, and 0 indicators.
Presolve time = 0.00 sec. (2.83 ticks)
Tried aggregator 1 time.
Reduced MIP has 240 rows, 458 columns, and 1518 nonzeros.
Reduced MIP has 458 binaries, 0 generals, 0 SOSs, and 0 indicators.
Presolve time = 0.00 sec. (1.05 ticks)
Represolve time = 0.03 sec. (18.59 ticks)
* 13304     0      integral     0  -1.30900e+13      Cuts: 19  1864092    0.00%
  13304     0        cutoff        -1.30900e+13  -1.30900e+13  1864092    0.00%

Clique cuts applied:  50
Cover cuts applied:  173
Implied bound cuts applied:  2
Flow cuts applied:  4
Mixed integer rounding cuts applied:  17
Zero-half cuts applied:  61
Gomory fractional cuts applied:  12

Root node processing (before b&c):
  Real time             =    1.19 sec. (984.29 ticks)
Parallel b&c, 40 threads:
  Real time             =   12.59 sec. (9178.30 ticks)
  Sync time (average)   =    0.49 sec.
  Wait time (average)   =    0.00 sec.
                          ------------
Total (root+branch&cut) =   13.78 sec. (10162.59 ticks)

Solution pool: 26 solutions saved.

MIP - Integer optimal solution:  Objective = -1.3089999688e+13
Solution time =   13.88 sec.  Iterations = 1864092  Nodes = 13304
Deterministic time = 10162.63 ticks  (732.03 ticks/sec)

CPLEX> Solution 'p27' written to file 'ee.sol'.
CPLEX> 